C 
 1.0000000000000000
    27.8288703149894445    0.0000000000000000    0.0000000000000000
     0.0000000000000000   27.8288703149894445    0.0000000000000000
     0.0000000000000000    0.0000000000000000   20.6609999999999978
 C  
 200
Cartesian
 17.9100295766683537 13.9144351574947223 -0.0045583127088666
 17.7144712663223558 15.1491417356490725  3.4480583127088620
 17.7144712663223594 15.1491417356490654  2.0615416872911374
 17.1469389452358882 16.2629866312270970  1.3819583127088571
 17.1469389452358918 16.2629866312270863 -0.0045583127088666
 16.2629866312270934 17.1469389452358882  3.4480583127088633
 16.2629866312270828 17.1469389452358882  2.0615416872911405
 15.1491417356490654 17.7144712663223558  1.3819583127088619
 15.1491417356490690 17.7144712663223522 -0.0045583127088620
 13.9144351574947205 17.9100295766683537  3.4480583127088593
 13.9144351574947223 17.9100295766683537  2.0615416872911370
 12.6797285793403756 17.7144712663223558  1.3819583127088564
 12.6797285793403773 17.7144712663223594 -0.0045583127088597
 11.5658836837623564 17.1469389452358953  3.4480583127088664
 11.5658836837623529 17.1469389452358953  2.0615416872911374
 10.6819313697535634 16.2629866312270863  1.3819583127088542
 10.6819313697535527 16.2629866312270934 -0.0045583127088620
 10.1143990486670852 15.1491417356490725  3.4480583127088660
 10.1143990486670905 15.1491417356490761  2.0615416872911401
  9.9188407383210926 13.9144351574947223  1.3819583127088624
  9.9188407383210908 13.9144351574947223 -0.0045583127088620
 10.1143990486670869 12.6797285793403738  3.4480583127088575
 10.1143990486670869 12.6797285793403685  2.0615416872911378
 10.6819313697535527 11.5658836837623529  1.3819583127088619
 10.6819313697535581 11.5658836837623529 -0.0045583127088597
 11.5658836837623564 10.6819313697535563  3.4480583127088664
 11.5658836837623529 10.6819313697535527  2.0615416872911378
 12.6797285793403773 10.1143990486670869  1.3819583127088537
 12.6797285793403756 10.1143990486670905 -0.0045583127088620
 13.9144351574947223  9.9188407383210908  3.4480583127088651
 13.9144351574947223  9.9188407383210961  2.0615416872911378
 15.1491417356490690 10.1143990486670905  1.3819583127088562
 15.1491417356490690 10.1143990486670923 -0.0045583127088597
 16.2629866312270934 10.6819313697535527  3.4480583127088651
 16.2629866312270934 10.6819313697535563  2.0615416872911387
 17.1469389452358882 11.5658836837623511  1.3819583127088551
 17.1469389452358847 11.5658836837623529 -0.0045583127088620
 17.7144712663223594 12.6797285793403720  3.4480583127088655
 17.7144712663223594 12.6797285793403738  2.0615416872911383
 17.9100295766683573 13.9144351574947169  1.3819583127088531
 17.9100295766683537 13.9144351574947223  4.1276416872911428
 17.7144712663223522 15.1491417356490725  7.5802583127088585
 17.7144712663223558 15.1491417356490690  6.1937416872911397
 17.1469389452358882 16.2629866312270863  5.5141583127088616
 17.1469389452358847 16.2629866312270934  4.1276416872911410
 16.2629866312270970 17.1469389452358847  7.5802583127088621
 16.2629866312270863 17.1469389452358847  6.1937416872911406
 15.1491417356490690 17.7144712663223558  5.5141583127088634
 15.1491417356490690 17.7144712663223522  4.1276416872911419
 13.9144351574947223 17.9100295766683573  7.5802583127088559
 13.9144351574947223 17.9100295766683502  6.1937416872911344
 12.6797285793403773 17.7144712663223594  5.5141583127088625
 12.6797285793403756 17.7144712663223558  4.1276416872911446
 11.5658836837623511 17.1469389452358918  7.5802583127088621
 11.5658836837623529 17.1469389452358918  6.1937416872911362
 10.6819313697535563 16.2629866312270828  5.5141583127088580
 10.6819313697535616 16.2629866312270863  4.1276416872911428
 10.1143990486670869 15.1491417356490725  7.5802583127088603
 10.1143990486670869 15.1491417356490725  6.1937416872911371
  9.9188407383210961 13.9144351574947223  5.5141583127088651
  9.9188407383210926 13.9144351574947205  4.1276416872911446
 10.1143990486670869 12.6797285793403738  7.5802583127088523
 10.1143990486670869 12.6797285793403756  6.1937416872911344
 10.6819313697535527 11.5658836837623529  5.5141583127088651
 10.6819313697535527 11.5658836837623529  4.1276416872911446
 11.5658836837623529 10.6819313697535527  7.5802583127088621
 11.5658836837623529 10.6819313697535563  6.1937416872911344
 12.6797285793403738 10.1143990486670869  5.5141583127088580
 12.6797285793403738 10.1143990486670905  4.1276416872911437
 13.9144351574947258  9.9188407383210944  7.5802583127088594
 13.9144351574947223  9.9188407383210944  6.1937416872911362
 15.1491417356490725 10.1143990486670905  5.5141583127088598
 15.1491417356490725 10.1143990486670905  4.1276416872911428
 16.2629866312270863 10.6819313697535527  7.5802583127088603
 16.2629866312270934 10.6819313697535527  6.1937416872911362
 17.1469389452358847 11.5658836837623511  5.5141583127088589
 17.1469389452358847 11.5658836837623511  4.1276416872911419
 17.7144712663223594 12.6797285793403773  7.5802583127088621
 17.7144712663223594 12.6797285793403738  6.1937416872911344
 17.9100295766683608 13.9144351574947205  5.5141583127088616
 17.9100295766683608 13.9144351574947223  8.2598416872911393
 17.7144712663223558 15.1491417356490725 11.7124583127088631
 17.7144712663223558 15.1491417356490690 10.3259416872911380
 17.1469389452358882 16.2629866312270863  9.6463583127088572
 17.1469389452358847 16.2629866312270970  8.2598416872911340
 16.2629866312270863 17.1469389452358882 11.7124583127088613
 16.2629866312270863 17.1469389452358882 10.3259416872911380
 15.1491417356490690 17.7144712663223558  9.6463583127088626
 15.1491417356490690 17.7144712663223522  8.2598416872911411
 13.9144351574947223 17.9100295766683537 11.7124583127088613
 13.9144351574947223 17.9100295766683537 10.3259416872911398
 12.6797285793403773 17.7144712663223558  9.6463583127088626
 12.6797285793403756 17.7144712663223558  8.2598416872911411
 11.5658836837623529 17.1469389452358918 11.7124583127088648
 11.5658836837623529 17.1469389452358918 10.3259416872911380
 10.6819313697535563 16.2629866312270828  9.6463583127088555
 10.6819313697535598 16.2629866312270863  8.2598416872911375
 10.1143990486670905 15.1491417356490725 11.7124583127088648
 10.1143990486670852 15.1491417356490725 10.3259416872911380
  9.9188407383210961 13.9144351574947223  9.6463583127088626
  9.9188407383210926 13.9144351574947205  8.2598416872911411
 10.1143990486670869 12.6797285793403685 11.7124583127088560
 10.1143990486670869 12.6797285793403756 10.3259416872911380
 10.6819313697535527 11.5658836837623529  9.6463583127088643
 10.6819313697535527 11.5658836837623529  8.2598416872911411
 11.5658836837623529 10.6819313697535581 11.7124583127088666
 11.5658836837623529 10.6819313697535527 10.3259416872911416
 12.6797285793403773 10.1143990486670905  9.6463583127088572
 12.6797285793403791 10.1143990486670852  8.2598416872911393
 13.9144351574947223  9.9188407383210926 11.7124583127088613
 13.9144351574947223  9.9188407383210908 10.3259416872911380
 15.1491417356490725 10.1143990486670940  9.6463583127088608
 15.1491417356490690 10.1143990486670905  8.2598416872911411
 16.2629866312270934 10.6819313697535563 11.7124583127088613
 16.2629866312270934 10.6819313697535527 10.3259416872911380
 17.1469389452358847 11.5658836837623529  9.6463583127088643
 17.1469389452358882 11.5658836837623475  8.2598416872911411
 17.7144712663223594 12.6797285793403738 11.7124583127088631
 17.7144712663223594 12.6797285793403738 10.3259416872911398
 17.9100295766683502 13.9144351574947205  9.6463583127088590
 17.9100295766683537 13.9144351574947223 12.3920416872911439
 17.7144712663223522 15.1491417356490725 15.8446583127088552
 17.7144712663223558 15.1491417356490690 14.4581416872911337
 17.1469389452358918 16.2629866312270863 13.7785583127088600
 17.1469389452358918 16.2629866312270863 12.3920416872911385
 16.2629866312271005 17.1469389452358882 15.8446583127088552
 16.2629866312270863 17.1469389452358882 14.4581416872911301
 15.1491417356490654 17.7144712663223558 13.7785583127088600
 15.1491417356490690 17.7144712663223522 12.3920416872911439
 13.9144351574947223 17.9100295766683537 15.8446583127088552
 13.9144351574947223 17.9100295766683537 14.4581416872911301
 12.6797285793403791 17.7144712663223558 13.7785583127088618
 12.6797285793403773 17.7144712663223558 12.3920416872911439
 11.5658836837623529 17.1469389452358882 15.8446583127088623
 11.5658836837623529 17.1469389452358918 14.4581416872911337
 10.6819313697535598 16.2629866312270863 13.7785583127088582
 10.6819313697535598 16.2629866312270863 12.3920416872911439
 10.1143990486670852 15.1491417356490725 15.8446583127088552
 10.1143990486670905 15.1491417356490725 14.4581416872911355
  9.9188407383210908 13.9144351574947223 13.7785583127088636
  9.9188407383210926 13.9144351574947223 12.3920416872911439
 10.1143990486670869 12.6797285793403738 15.8446583127088552
 10.1143990486670869 12.6797285793403685 14.4581416872911337
 10.6819313697535598 11.5658836837623529 13.7785583127088636
 10.6819313697535563 11.5658836837623529 12.3920416872911439
 11.5658836837623529 10.6819313697535527 15.8446583127088552
 11.5658836837623529 10.6819313697535563 14.4581416872911337
 12.6797285793403685 10.1143990486670905 13.7785583127088582
 12.6797285793403720 10.1143990486670923 12.3920416872911439
 13.9144351574947223  9.9188407383210908 15.8446583127088552
 13.9144351574947223  9.9188407383210944 14.4581416872911337
 15.1491417356490690 10.1143990486670869 13.7785583127088600
 15.1491417356490725 10.1143990486670923 12.3920416872911439
 16.2629866312270863 10.6819313697535563 15.8446583127088569
 16.2629866312270863 10.6819313697535563 14.4581416872911355
 17.1469389452358918 11.5658836837623529 13.7785583127088600
 17.1469389452358847 11.5658836837623511 12.3920416872911403
 17.7144712663223558 12.6797285793403791 15.8446583127088587
 17.7144712663223558 12.6797285793403756 14.4581416872911355
 17.9100295766683537 13.9144351574947205 13.7785583127088600
 17.9100295766683537 13.9144351574947223 16.5242416872911377
 17.7144712663223594 15.1491417356490690 19.9768583127088597
 17.7144712663223558 15.1491417356490690 18.5903416872911436
 17.1469389452358811 16.2629866312270934 17.9107583127088681
 17.1469389452358882 16.2629866312270863 16.5242416872911413
 16.2629866312270863 17.1469389452358882 19.9768583127088597
 16.2629866312270934 17.1469389452358918 18.5903416872911436
 15.1491417356490654 17.7144712663223558 17.9107583127088681
 15.1491417356490690 17.7144712663223594 16.5242416872911413
 13.9144351574947223 17.9100295766683537 19.9768583127088490
 13.9144351574947258 17.9100295766683537 18.5903416872911400
 12.6797285793403738 17.7144712663223594 17.9107583127088610
 12.6797285793403738 17.7144712663223558 16.5242416872911448
 11.5658836837623564 17.1469389452358918 19.9768583127088704
 11.5658836837623529 17.1469389452358953 18.5903416872911400
 10.6819313697535581 16.2629866312270863 17.9107583127088574
 10.6819313697535598 16.2629866312270863 16.5242416872911342
 10.1143990486670905 15.1491417356490725 19.9768583127088597
 10.1143990486670869 15.1491417356490690 18.5903416872911400
  9.9188407383210926 13.9144351574947223 17.9107583127088610
  9.9188407383210926 13.9144351574947223 16.5242416872911377
 10.1143990486670869 12.6797285793403685 19.9768583127088526
 10.1143990486670869 12.6797285793403773 18.5903416872911365
 10.6819313697535527 11.5658836837623529 17.9107583127088574
 10.6819313697535527 11.5658836837623529 16.5242416872911342
 11.5658836837623529 10.6819313697535563 19.9768583127088704
 11.5658836837623529 10.6819313697535563 18.5903416872911436
 12.6797285793403685 10.1143990486670905 17.9107583127088574
 12.6797285793403720 10.1143990486670869 16.5242416872911342
 13.9144351574947223  9.9188407383210926 19.9768583127088597
 13.9144351574947223  9.9188407383210908 18.5903416872911436
 15.1491417356490761 10.1143990486670869 17.9107583127088610
 15.1491417356490725 10.1143990486670905 16.5242416872911377
 16.2629866312270934 10.6819313697535563 19.9768583127088704
 16.2629866312270934 10.6819313697535563 18.5903416872911436
 17.1469389452358918 11.5658836837623529 17.9107583127088610
 17.1469389452358918 11.5658836837623529 16.5242416872911377
 17.7144712663223594 12.6797285793403756 19.9768583127088633
 17.7144712663223522 12.6797285793403773 18.5903416872911436
 17.9100295766683537 13.9144351574947205 17.9107583127088574
Cartesian
  0.0000000000000000  0.0000000000000000  0.0000000000000000
  0.0000000000000000  0.0000000000000000  0.0000000000000000
  0.0000000000000000  0.0000000000000000  0.0000000000000000
  0.0000000000000000  0.0000000000000000  0.0000000000000000
  0.0000000000000000  0.0000000000000000  0.0000000000000000
  0.0000000000000000  0.0000000000000000  0.0000000000000000
  0.0000000000000000  0.0000000000000000  0.0000000000000000
  0.0000000000000000  0.0000000000000000  0.0000000000000000
  0.0000000000000000  0.0000000000000000  0.0000000000000000
  0.0000000000000000  0.0000000000000000  0.0000000000000000
  0.0000000000000000  0.0000000000000000  0.0000000000000000
  0.0000000000000000  0.0000000000000000  0.0000000000000000
  0.0000000000000000  0.0000000000000000  0.0000000000000000
  0.0000000000000000  0.0000000000000000  0.0000000000000000
  0.0000000000000000  0.0000000000000000  0.0000000000000000
  0.0000000000000000  0.0000000000000000  0.0000000000000000
  0.0000000000000000  0.0000000000000000  0.0000000000000000
  0.0000000000000000  0.0000000000000000  0.0000000000000000
  0.0000000000000000  0.0000000000000000  0.0000000000000000
  0.0000000000000000  0.0000000000000000  0.0000000000000000
  0.0000000000000000  0.0000000000000000  0.0000000000000000
  0.0000000000000000  0.0000000000000000  0.0000000000000000
  0.0000000000000000  0.0000000000000000  0.0000000000000000
  0.0000000000000000  0.0000000000000000  0.0000000000000000
  0.0000000000000000  0.0000000000000000  0.0000000000000000
  0.0000000000000000  0.0000000000000000  0.0000000000000000
  0.0000000000000000  0.0000000000000000  0.0000000000000000
  0.0000000000000000  0.0000000000000000  0.0000000000000000
  0.0000000000000000  0.0000000000000000  0.0000000000000000
  0.0000000000000000  0.0000000000000000  0.0000000000000000
  0.0000000000000000  0.0000000000000000  0.0000000000000000
  0.0000000000000000  0.0000000000000000  0.0000000000000000
  0.0000000000000000  0.0000000000000000  0.0000000000000000
  0.0000000000000000  0.0000000000000000  0.0000000000000000
  0.0000000000000000  0.0000000000000000  0.0000000000000000
  0.0000000000000000  0.0000000000000000  0.0000000000000000
  0.0000000000000000  0.0000000000000000  0.0000000000000000
  0.0000000000000000  0.0000000000000000  0.0000000000000000
  0.0000000000000000  0.0000000000000000  0.0000000000000000
  0.0000000000000000  0.0000000000000000  0.0000000000000000
  0.0000000000000000  0.0000000000000000  0.0000000000000000
  0.0000000000000000  0.0000000000000000  0.0000000000000000
  0.0000000000000000  0.0000000000000000  0.0000000000000000
  0.0000000000000000  0.0000000000000000  0.0000000000000000
  0.0000000000000000  0.0000000000000000  0.0000000000000000
  0.0000000000000000  0.0000000000000000  0.0000000000000000
  0.0000000000000000  0.0000000000000000  0.0000000000000000
  0.0000000000000000  0.0000000000000000  0.0000000000000000
  0.0000000000000000  0.0000000000000000  0.0000000000000000
  0.0000000000000000  0.0000000000000000  0.0000000000000000
  0.0000000000000000  0.0000000000000000  0.0000000000000000
  0.0000000000000000  0.0000000000000000  0.0000000000000000
  0.0000000000000000  0.0000000000000000  0.0000000000000000
  0.0000000000000000  0.0000000000000000  0.0000000000000000
  0.0000000000000000  0.0000000000000000  0.0000000000000000
  0.0000000000000000  0.0000000000000000  0.0000000000000000
  0.0000000000000000  0.0000000000000000  0.0000000000000000
  0.0000000000000000  0.0000000000000000  0.0000000000000000
  0.0000000000000000  0.0000000000000000  0.0000000000000000
  0.0000000000000000  0.0000000000000000  0.0000000000000000
  0.0000000000000000  0.0000000000000000  0.0000000000000000
  0.0000000000000000  0.0000000000000000  0.0000000000000000
  0.0000000000000000  0.0000000000000000  0.0000000000000000
  0.0000000000000000  0.0000000000000000  0.0000000000000000
  0.0000000000000000  0.0000000000000000  0.0000000000000000
  0.0000000000000000  0.0000000000000000  0.0000000000000000
  0.0000000000000000  0.0000000000000000  0.0000000000000000
  0.0000000000000000  0.0000000000000000  0.0000000000000000
  0.0000000000000000  0.0000000000000000  0.0000000000000000
  0.0000000000000000  0.0000000000000000  0.0000000000000000
  0.0000000000000000  0.0000000000000000  0.0000000000000000
  0.0000000000000000  0.0000000000000000  0.0000000000000000
  0.0000000000000000  0.0000000000000000  0.0000000000000000
  0.0000000000000000  0.0000000000000000  0.0000000000000000
  0.0000000000000000  0.0000000000000000  0.0000000000000000
  0.0000000000000000  0.0000000000000000  0.0000000000000000
  0.0000000000000000  0.0000000000000000  0.0000000000000000
  0.0000000000000000  0.0000000000000000  0.0000000000000000
  0.0000000000000000  0.0000000000000000  0.0000000000000000
  0.0000000000000000  0.0000000000000000  0.0000000000000000
  0.0000000000000000  0.0000000000000000  0.0000000000000000
  0.0000000000000000  0.0000000000000000  0.0000000000000000
  0.0000000000000000  0.0000000000000000  0.0000000000000000
  0.0000000000000000  0.0000000000000000  0.0000000000000000
  0.0000000000000000  0.0000000000000000  0.0000000000000000
  0.0000000000000000  0.0000000000000000  0.0000000000000000
  0.0000000000000000  0.0000000000000000  0.0000000000000000
  0.0000000000000000  0.0000000000000000  0.0000000000000000
  0.0000000000000000  0.0000000000000000  0.0000000000000000
  0.0000000000000000  0.0000000000000000  0.0000000000000000
  0.0000000000000000  0.0000000000000000  0.0000000000000000
  0.0000000000000000  0.0000000000000000  0.0000000000000000
  0.0000000000000000  0.0000000000000000  0.0000000000000000
  0.0000000000000000  0.0000000000000000  0.0000000000000000
  0.0000000000000000  0.0000000000000000  0.0000000000000000
  0.0000000000000000  0.0000000000000000  0.0000000000000000
  0.0000000000000000  0.0000000000000000  0.0000000000000000
  0.0000000000000000  0.0000000000000000  0.0000000000000000
  0.0000000000000000  0.0000000000000000  0.0000000000000000
  0.0000000000000000  0.0000000000000000  0.0000000000000000
  0.0000000000000000  0.0000000000000000  0.0000000000000000
  0.0000000000000000  0.0000000000000000  0.0000000000000000
  0.0000000000000000  0.0000000000000000  0.0000000000000000
  0.0000000000000000  0.0000000000000000  0.0000000000000000
  0.0000000000000000  0.0000000000000000  0.0000000000000000
  0.0000000000000000  0.0000000000000000  0.0000000000000000
  0.0000000000000000  0.0000000000000000  0.0000000000000000
  0.0000000000000000  0.0000000000000000  0.0000000000000000
  0.0000000000000000  0.0000000000000000  0.0000000000000000
  0.0000000000000000  0.0000000000000000  0.0000000000000000
  0.0000000000000000  0.0000000000000000  0.0000000000000000
  0.0000000000000000  0.0000000000000000  0.0000000000000000
  0.0000000000000000  0.0000000000000000  0.0000000000000000
  0.0000000000000000  0.0000000000000000  0.0000000000000000
  0.0000000000000000  0.0000000000000000  0.0000000000000000
  0.0000000000000000  0.0000000000000000  0.0000000000000000
  0.0000000000000000  0.0000000000000000  0.0000000000000000
  0.0000000000000000  0.0000000000000000  0.0000000000000000
  0.0000000000000000  0.0000000000000000  0.0000000000000000
  0.0000000000000000  0.0000000000000000  0.0000000000000000
  0.0000000000000000  0.0000000000000000  0.0000000000000000
  0.0000000000000000  0.0000000000000000  0.0000000000000000
  0.0000000000000000  0.0000000000000000  0.0000000000000000
  0.0000000000000000  0.0000000000000000  0.0000000000000000
  0.0000000000000000  0.0000000000000000  0.0000000000000000
  0.0000000000000000  0.0000000000000000  0.0000000000000000
  0.0000000000000000  0.0000000000000000  0.0000000000000000
  0.0000000000000000  0.0000000000000000  0.0000000000000000
  0.0000000000000000  0.0000000000000000  0.0000000000000000
  0.0000000000000000  0.0000000000000000  0.0000000000000000
  0.0000000000000000  0.0000000000000000  0.0000000000000000
  0.0000000000000000  0.0000000000000000  0.0000000000000000
  0.0000000000000000  0.0000000000000000  0.0000000000000000
  0.0000000000000000  0.0000000000000000  0.0000000000000000
  0.0000000000000000  0.0000000000000000  0.0000000000000000
  0.0000000000000000  0.0000000000000000  0.0000000000000000
  0.0000000000000000  0.0000000000000000  0.0000000000000000
  0.0000000000000000  0.0000000000000000  0.0000000000000000
  0.0000000000000000  0.0000000000000000  0.0000000000000000
  0.0000000000000000  0.0000000000000000  0.0000000000000000
  0.0000000000000000  0.0000000000000000  0.0000000000000000
  0.0000000000000000  0.0000000000000000  0.0000000000000000
  0.0000000000000000  0.0000000000000000  0.0000000000000000
  0.0000000000000000  0.0000000000000000  0.0000000000000000
  0.0000000000000000  0.0000000000000000  0.0000000000000000
  0.0000000000000000  0.0000000000000000  0.0000000000000000
  0.0000000000000000  0.0000000000000000  0.0000000000000000
  0.0000000000000000  0.0000000000000000  0.0000000000000000
  0.0000000000000000  0.0000000000000000  0.0000000000000000
  0.0000000000000000  0.0000000000000000  0.0000000000000000
  0.0000000000000000  0.0000000000000000  0.0000000000000000
  0.0000000000000000  0.0000000000000000  0.0000000000000000
  0.0000000000000000  0.0000000000000000  0.0000000000000000
  0.0000000000000000  0.0000000000000000  0.0000000000000000
  0.0000000000000000  0.0000000000000000  0.0000000000000000
  0.0000000000000000  0.0000000000000000  0.0000000000000000
  0.0000000000000000  0.0000000000000000  0.0000000000000000
  0.0000000000000000  0.0000000000000000  0.0000000000000000
  0.0000000000000000  0.0000000000000000  0.0000000000000000
  0.0000000000000000  0.0000000000000000  0.0000000000000000
  0.0000000000000000  0.0000000000000000  0.0000000000000000
  0.0000000000000000  0.0000000000000000  0.0000000000000000
  0.0000000000000000  0.0000000000000000  0.0000000000000000
  0.0000000000000000  0.0000000000000000  0.0000000000000000
  0.0000000000000000  0.0000000000000000  0.0000000000000000
  0.0000000000000000  0.0000000000000000  0.0000000000000000
  0.0000000000000000  0.0000000000000000  0.0000000000000000
  0.0000000000000000  0.0000000000000000  0.0000000000000000
  0.0000000000000000  0.0000000000000000  0.0000000000000000
  0.0000000000000000  0.0000000000000000  0.0000000000000000
  0.0000000000000000  0.0000000000000000  0.0000000000000000
  0.0000000000000000  0.0000000000000000  0.0000000000000000
  0.0000000000000000  0.0000000000000000  0.0000000000000000
  0.0000000000000000  0.0000000000000000  0.0000000000000000
  0.0000000000000000  0.0000000000000000  0.0000000000000000
  0.0000000000000000  0.0000000000000000  0.0000000000000000
  0.0000000000000000  0.0000000000000000  0.0000000000000000
  0.0000000000000000  0.0000000000000000  0.0000000000000000
  0.0000000000000000  0.0000000000000000  0.0000000000000000
  0.0000000000000000  0.0000000000000000  0.0000000000000000
  0.0000000000000000  0.0000000000000000  0.0000000000000000
  0.0000000000000000  0.0000000000000000  0.0000000000000000
  0.0000000000000000  0.0000000000000000  0.0000000000000000
  0.0000000000000000  0.0000000000000000  0.0000000000000000
  0.0000000000000000  0.0000000000000000  0.0000000000000000
  0.0000000000000000  0.0000000000000000  0.0000000000000000
  0.0000000000000000  0.0000000000000000  0.0000000000000000
  0.0000000000000000  0.0000000000000000  0.0000000000000000
  0.0000000000000000  0.0000000000000000  0.0000000000000000
  0.0000000000000000  0.0000000000000000  0.0000000000000000
  0.0000000000000000  0.0000000000000000  0.0000000000000000
  0.0000000000000000  0.0000000000000000  0.0000000000000000
  0.0000000000000000  0.0000000000000000  0.0000000000000000
  0.0000000000000000  0.0000000000000000  0.0000000000000000
  0.0000000000000000  0.0000000000000000  0.0000000000000000
  0.0000000000000000  0.0000000000000000  0.0000000000000000
  0.0000000000000000  0.0000000000000000  0.0000000000000000
  0.0000000000000000  0.0000000000000000  0.0000000000000000
  0.0000000000000000  0.0000000000000000  0.0000000000000000
  0.0000000000000000  0.0000000000000000  0.0000000000000000
